min: c;

c = 3.46441905938436 * u2_t7_h3 + 3.1026612220287 * u2_t7_h4 + 3.09868422918283 * u2_t2_h5 + 3.09868422918283 * u2_t3_h5 + 3.09868422918283 * u2_t7_h5 + 4.18267188465264 * u2_t2_h6 + 4.18267188465264 * u2_t3_h6 + 4.18267188465264 * u2_t4_h6 + 4.18267188465264 * u2_t7_h6 + 4.18267188465264 * u2_t10_h6 + 3.86111393247601 * u2_t2_h7 + 3.86111393247601 * u2_t3_h7 + 3.86111393247601 * u2_t4_h7 + 3.86111393247601 * u2_t7_h7 + 3.86111393247601 * u2_t10_h7 + 5.87052962457776 * u2_t2_h8 + 5.87052962457776 * u2_t3_h8 + 5.87052962457776 * u2_t4_h8 + 5.87052962457776 * u2_t7_h8 + 5.87052962457776 * u2_t10_h8 + 5.235809433592 * u2_t2_h9 + 5.235809433592 * u2_t3_h9 + 5.235809433592 * u2_t4_h9 + 5.235809433592 * u2_t7_h9 + 5.235809433592 * u2_t10_h9 + 4.97907989525322 * u2_t2_h10 + 4.97907989525322 * u2_t3_h10 + 4.97907989525322 * u2_t4_h10 + 4.97907989525322 * u2_t7_h10 + 4.97907989525322 * u2_t10_h10 + 3.57248701016747 * u2_t1_h11 + 3.57248701016747 * u2_t2_h11 + 3.57248701016747 * u2_t3_h11 + 3.57248701016747 * u2_t4_h11 + 3.57248701016747 * u2_t7_h11 + 3.57248701016747 * u2_t10_h11 + 6.24284017313311 * u2_t1_h12 + 6.24284017313311 * u2_t3_h12 + 6.24284017313311 * u2_t4_h12 + 6.24284017313311 * u2_t7_h12 + 4.76998315800131 * u2_t1_h13 + 4.76998315800131 * u2_t3_h13 + 4.76998315800131 * u2_t4_h13 + 4.76998315800131 * u2_t7_h13 + 4.76998315800131 * u2_t9_h13 + 5.43005441598648 * u2_t1_h14 + 5.43005441598648 * u2_t3_h14 + 5.43005441598648 * u2_t4_h14 + 5.43005441598648 * u2_t7_h14 + 5.43005441598648 * u2_t9_h14 + 5.81205479319756 * u2_t1_h15 + 5.81205479319756 * u2_t3_h15 + 5.81205479319756 * u2_t4_h15 + 5.81205479319756 * u2_t7_h15 + 5.81205479319756 * u2_t9_h15 + 6.13515314939848 * u2_t1_h16 + 6.13515314939848 * u2_t3_h16 + 6.13515314939848 * u2_t4_h16 + 6.13515314939848 * u2_t7_h16 + 6.13515314939848 * u2_t9_h16 + 5.97549873003446 * u2_t1_h17 + 5.97549873003446 * u2_t3_h17 + 5.97549873003446 * u2_t4_h17 + 5.97549873003446 * u2_t7_h17 + 5.97549873003446 * u2_t9_h17 + 6.02633092504768 * u2_t1_h18 + 6.02633092504768 * u2_t3_h18 + 6.02633092504768 * u2_t4_h18 + 6.02633092504768 * u2_t6_h18 + 6.02633092504768 * u2_t7_h18 + 6.00557955644299 * u2_t1_h19 + 6.00557955644299 * u2_t3_h19 + 6.00557955644299 * u2_t4_h19 + 6.00557955644299 * u2_t5_h19 + 6.00557955644299 * u2_t6_h19 + 6.00557955644299 * u2_t7_h19 + 5.11340272976789 * u2_t1_h20 + 5.11340272976789 * u2_t3_h20 + 5.11340272976789 * u2_t4_h20 + 5.11340272976789 * u2_t6_h20 + 5.11340272976789 * u2_t7_h20 + 5.23624795043844 * u2_t1_h21 + 5.23624795043844 * u2_t3_h21 + 5.23624795043844 * u2_t6_h21 + 5.23624795043844 * u2_t7_h21 + 5.23624795043844 * u2_t8_h21 + 6.05538163467397 * u2_t1_h22 + 6.05538163467397 * u2_t3_h22 + 6.05538163467397 * u2_t7_h22 + 6.05538163467397 * u2_t8_h22 + 5.92183833222785 * u2_t3_h23 + 5.92183833222785 * u2_t7_h23 + 5.92183833222785 * u2_t8_h23;
0 <= u2_t1_h11 <= 1;
0 <= u2_t1_h12 <= 1;
0 <= u2_t1_h13 <= 1;
0 <= u2_t1_h14 <= 1;
0 <= u2_t1_h15 <= 1;
0 <= u2_t1_h16 <= 1;
0 <= u2_t1_h17 <= 1;
0 <= u2_t1_h18 <= 1;
0 <= u2_t1_h19 <= 1;
0 <= u2_t1_h20 <= 1;
0 <= u2_t1_h21 <= 1;
0 <= u2_t1_h22 <= 1;
u2_t1_h11 + u2_t1_h12 + u2_t1_h13 + u2_t1_h14 + u2_t1_h15 + u2_t1_h16 + u2_t1_h17 + u2_t1_h18 + u2_t1_h19 + u2_t1_h20 + u2_t1_h21 + u2_t1_h22 = 2;
0 <= u2_t2_h5 <= 1;
0 <= u2_t2_h6 <= 1;
0 <= u2_t2_h7 <= 1;
0 <= u2_t2_h8 <= 1;
0 <= u2_t2_h9 <= 1;
0 <= u2_t2_h10 <= 1;
0 <= u2_t2_h11 <= 1;
u2_t2_h5 + u2_t2_h6 + u2_t2_h7 + u2_t2_h8 + u2_t2_h9 + u2_t2_h10 + u2_t2_h11 = 2;
0 <= u2_t3_h5 <= 1;
0 <= u2_t3_h6 <= 1;
0 <= u2_t3_h7 <= 1;
0 <= u2_t3_h8 <= 1;
0 <= u2_t3_h9 <= 1;
0 <= u2_t3_h10 <= 1;
0 <= u2_t3_h11 <= 1;
0 <= u2_t3_h12 <= 1;
0 <= u2_t3_h13 <= 1;
0 <= u2_t3_h14 <= 1;
0 <= u2_t3_h15 <= 1;
0 <= u2_t3_h16 <= 1;
0 <= u2_t3_h17 <= 1;
0 <= u2_t3_h18 <= 1;
0 <= u2_t3_h19 <= 1;
0 <= u2_t3_h20 <= 1;
0 <= u2_t3_h21 <= 1;
0 <= u2_t3_h22 <= 1;
0 <= u2_t3_h23 <= 1;
u2_t3_h5 + u2_t3_h6 + u2_t3_h7 + u2_t3_h8 + u2_t3_h9 + u2_t3_h10 + u2_t3_h11 + u2_t3_h12 + u2_t3_h13 + u2_t3_h14 + u2_t3_h15 + u2_t3_h16 + u2_t3_h17 + u2_t3_h18 + u2_t3_h19 + u2_t3_h20 + u2_t3_h21 + u2_t3_h22 + u2_t3_h23 = 1;
0 <= u2_t4_h6 <= 1;
0 <= u2_t4_h7 <= 1;
0 <= u2_t4_h8 <= 1;
0 <= u2_t4_h9 <= 1;
0 <= u2_t4_h10 <= 1;
0 <= u2_t4_h11 <= 1;
0 <= u2_t4_h12 <= 1;
0 <= u2_t4_h13 <= 1;
0 <= u2_t4_h14 <= 1;
0 <= u2_t4_h15 <= 1;
0 <= u2_t4_h16 <= 1;
0 <= u2_t4_h17 <= 1;
0 <= u2_t4_h18 <= 1;
0 <= u2_t4_h19 <= 1;
0 <= u2_t4_h20 <= 1;
u2_t4_h6 + u2_t4_h7 + u2_t4_h8 + u2_t4_h9 + u2_t4_h10 + u2_t4_h11 + u2_t4_h12 + u2_t4_h13 + u2_t4_h14 + u2_t4_h15 + u2_t4_h16 + u2_t4_h17 + u2_t4_h18 + u2_t4_h19 + u2_t4_h20 = 3;
0 <= u2_t5_h19 <= 1;
u2_t5_h19 = 1;
0 <= u2_t6_h18 <= 1;
0 <= u2_t6_h19 <= 1;
0 <= u2_t6_h20 <= 1;
0 <= u2_t6_h21 <= 1;
u2_t6_h18 + u2_t6_h19 + u2_t6_h20 + u2_t6_h21 = 2;
0 <= u2_t7_h3 <= 1;
0 <= u2_t7_h4 <= 1;
0 <= u2_t7_h5 <= 1;
0 <= u2_t7_h6 <= 1;
0 <= u2_t7_h7 <= 1;
0 <= u2_t7_h8 <= 1;
0 <= u2_t7_h9 <= 1;
0 <= u2_t7_h10 <= 1;
0 <= u2_t7_h11 <= 1;
0 <= u2_t7_h12 <= 1;
0 <= u2_t7_h13 <= 1;
0 <= u2_t7_h14 <= 1;
0 <= u2_t7_h15 <= 1;
0 <= u2_t7_h16 <= 1;
0 <= u2_t7_h17 <= 1;
0 <= u2_t7_h18 <= 1;
0 <= u2_t7_h19 <= 1;
0 <= u2_t7_h20 <= 1;
0 <= u2_t7_h21 <= 1;
0 <= u2_t7_h22 <= 1;
0 <= u2_t7_h23 <= 1;
u2_t7_h3 + u2_t7_h4 + u2_t7_h5 + u2_t7_h6 + u2_t7_h7 + u2_t7_h8 + u2_t7_h9 + u2_t7_h10 + u2_t7_h11 + u2_t7_h12 + u2_t7_h13 + u2_t7_h14 + u2_t7_h15 + u2_t7_h16 + u2_t7_h17 + u2_t7_h18 + u2_t7_h19 + u2_t7_h20 + u2_t7_h21 + u2_t7_h22 + u2_t7_h23 = 3;
0 <= u2_t8_h21 <= 1;
0 <= u2_t8_h22 <= 1;
0 <= u2_t8_h23 <= 1;
u2_t8_h21 + u2_t8_h22 + u2_t8_h23 = 2;
0 <= u2_t9_h13 <= 1;
0 <= u2_t9_h14 <= 1;
0 <= u2_t9_h15 <= 1;
0 <= u2_t9_h16 <= 1;
0 <= u2_t9_h17 <= 1;
u2_t9_h13 + u2_t9_h14 + u2_t9_h15 + u2_t9_h16 + u2_t9_h17 = 1;
0 <= u2_t10_h6 <= 1;
0 <= u2_t10_h7 <= 1;
0 <= u2_t10_h8 <= 1;
0 <= u2_t10_h9 <= 1;
0 <= u2_t10_h10 <= 1;
0 <= u2_t10_h11 <= 1;
u2_t10_h6 + u2_t10_h7 + u2_t10_h8 + u2_t10_h9 + u2_t10_h10 + u2_t10_h11 = 2;
